c nIsolatedPIs 14
c maxPI 18
p cnf 266 745
c gate 19 2 12 0
2 -19 0
12 -19 0
-2 -12 19 0
c gate 20 4 10 0
4 -20 0
10 -20 0
-4 -10 20 0
c gate 21 3 11 0
3 -21 0
11 -21 0
-3 -11 21 0
c gate 22 -20 -21 0
-20 -22 0
-21 -22 0
20 21 22 0
c gate 23 20 21 0
20 -23 0
21 -23 0
-20 -21 23 0
c gate 24 -22 -23 0
-22 -24 0
-23 -24 0
22 23 24 0
c gate 25 19 24 0
19 -25 0
24 -25 0
-19 -24 25 0
c gate 26 -19 -24 0
-19 -26 0
-24 -26 0
19 24 26 0
c gate 27 -25 -26 0
-25 -27 0
-26 -27 0
25 26 27 0
c gate 28 3 10 0
3 -28 0
10 -28 0
-3 -10 28 0
c gate 29 2 11 0
2 -29 0
11 -29 0
-2 -11 29 0
c gate 30 28 29 0
28 -30 0
29 -30 0
-28 -29 30 0
c gate 31 -28 -29 0
-28 -31 0
-29 -31 0
28 29 31 0
c gate 32 1 12 0
1 -32 0
12 -32 0
-1 -12 32 0
c gate 33 -31 32 0
-31 -33 0
32 -33 0
31 -32 33 0
c gate 34 -30 -33 0
-30 -34 0
-33 -34 0
30 33 34 0
c gate 35 27 -34 0
27 -35 0
-34 -35 0
-27 34 35 0
c gate 36 1 13 0
1 -36 0
13 -36 0
-1 -13 36 0
c gate 37 -27 34 0
-27 -37 0
34 -37 0
27 -34 37 0
c gate 38 -35 -37 0
-35 -38 0
-37 -38 0
35 37 38 0
c gate 39 36 38 0
36 -39 0
38 -39 0
-36 -38 39 0
c gate 40 -35 -39 0
-35 -40 0
-39 -40 0
35 39 40 0
c gate 41 2 13 0
2 -41 0
13 -41 0
-2 -13 41 0
c gate 42 1 14 0
1 -42 0
14 -42 0
-1 -14 42 0
c gate 43 -41 -42 0
-41 -43 0
-42 -43 0
41 42 43 0
c gate 44 41 42 0
41 -44 0
42 -44 0
-41 -42 44 0
c gate 45 -43 -44 0
-43 -45 0
-44 -45 0
43 44 45 0
c gate 46 -23 -25 0
-23 -46 0
-25 -46 0
23 25 46 0
c gate 47 3 12 0
3 -47 0
12 -47 0
-3 -12 47 0
c gate 48 4 11 0
4 -48 0
11 -48 0
-4 -11 48 0
c gate 49 5 10 0
5 -49 0
10 -49 0
-5 -10 49 0
c gate 50 -48 -49 0
-48 -50 0
-49 -50 0
48 49 50 0
c gate 51 48 49 0
48 -51 0
49 -51 0
-48 -49 51 0
c gate 52 -50 -51 0
-50 -52 0
-51 -52 0
50 51 52 0
c gate 53 47 52 0
47 -53 0
52 -53 0
-47 -52 53 0
c gate 54 -47 -52 0
-47 -54 0
-52 -54 0
47 52 54 0
c gate 55 -53 -54 0
-53 -55 0
-54 -55 0
53 54 55 0
c gate 56 -46 55 0
-46 -56 0
55 -56 0
46 -55 56 0
c gate 57 46 -55 0
46 -57 0
-55 -57 0
-46 55 57 0
c gate 58 -56 -57 0
-56 -58 0
-57 -58 0
56 57 58 0
c gate 59 45 58 0
45 -59 0
58 -59 0
-45 -58 59 0
c gate 60 -45 -58 0
-45 -60 0
-58 -60 0
45 58 60 0
c gate 61 -59 -60 0
-59 -61 0
-60 -61 0
59 60 61 0
c gate 62 -40 61 0
-40 -62 0
61 -62 0
40 -61 62 0
c gate 63 -56 -59 0
-56 -63 0
-59 -63 0
56 59 63 0
c gate 64 1 15 0
1 -64 0
15 -64 0
-1 -15 64 0
c gate 65 2 14 0
2 -65 0
14 -65 0
-2 -14 65 0
c gate 66 3 13 0
3 -66 0
13 -66 0
-3 -13 66 0
c gate 67 -65 -66 0
-65 -67 0
-66 -67 0
65 66 67 0
c gate 68 65 66 0
65 -68 0
66 -68 0
-65 -66 68 0
c gate 69 -67 -68 0
-67 -69 0
-68 -69 0
67 68 69 0
c gate 70 64 69 0
64 -70 0
69 -70 0
-64 -69 70 0
c gate 71 -64 -69 0
-64 -71 0
-69 -71 0
64 69 71 0
c gate 72 -70 -71 0
-70 -72 0
-71 -72 0
70 71 72 0
c gate 73 -51 -53 0
-51 -73 0
-53 -73 0
51 53 73 0
c gate 74 4 12 0
4 -74 0
12 -74 0
-4 -12 74 0
c gate 75 5 11 0
5 -75 0
11 -75 0
-5 -11 75 0
c gate 76 6 10 0
6 -76 0
10 -76 0
-6 -10 76 0
c gate 77 -75 -76 0
-75 -77 0
-76 -77 0
75 76 77 0
c gate 78 75 76 0
75 -78 0
76 -78 0
-75 -76 78 0
c gate 79 -77 -78 0
-77 -79 0
-78 -79 0
77 78 79 0
c gate 80 -74 -79 0
-74 -80 0
-79 -80 0
74 79 80 0
c gate 81 74 79 0
74 -81 0
79 -81 0
-74 -79 81 0
c gate 82 -80 -81 0
-80 -82 0
-81 -82 0
80 81 82 0
c gate 83 -73 82 0
-73 -83 0
82 -83 0
73 -82 83 0
c gate 84 73 -82 0
73 -84 0
-82 -84 0
-73 82 84 0
c gate 85 -83 -84 0
-83 -85 0
-84 -85 0
83 84 85 0
c gate 86 72 85 0
72 -86 0
85 -86 0
-72 -85 86 0
c gate 87 -72 -85 0
-72 -87 0
-85 -87 0
72 85 87 0
c gate 88 -86 -87 0
-86 -88 0
-87 -88 0
86 87 88 0
c gate 89 -63 88 0
-63 -89 0
88 -89 0
63 -88 89 0
c gate 90 63 -88 0
63 -90 0
-88 -90 0
-63 88 90 0
c gate 91 -89 -90 0
-89 -91 0
-90 -91 0
89 90 91 0
c gate 92 44 91 0
44 -92 0
91 -92 0
-44 -91 92 0
c gate 93 -89 -92 0
-89 -93 0
-92 -93 0
89 92 93 0
c gate 94 1 16 0
1 -94 0
16 -94 0
-1 -16 94 0
c gate 95 -68 -70 0
-68 -95 0
-70 -95 0
68 70 95 0
c gate 96 94 -95 0
94 -96 0
-95 -96 0
-94 95 96 0
c gate 97 -94 95 0
-94 -97 0
95 -97 0
94 -95 97 0
c gate 98 -96 -97 0
-96 -98 0
-97 -98 0
96 97 98 0
c gate 99 -83 -86 0
-83 -99 0
-86 -99 0
83 86 99 0
c gate 100 2 15 0
2 -100 0
15 -100 0
-2 -15 100 0
c gate 101 3 14 0
3 -101 0
14 -101 0
-3 -14 101 0
c gate 102 4 13 0
4 -102 0
13 -102 0
-4 -13 102 0
c gate 103 -101 -102 0
-101 -103 0
-102 -103 0
101 102 103 0
c gate 104 101 102 0
101 -104 0
102 -104 0
-101 -102 104 0
c gate 105 -103 -104 0
-103 -105 0
-104 -105 0
103 104 105 0
c gate 106 100 105 0
100 -106 0
105 -106 0
-100 -105 106 0
c gate 107 -100 -105 0
-100 -107 0
-105 -107 0
100 105 107 0
c gate 108 -106 -107 0
-106 -108 0
-107 -108 0
106 107 108 0
c gate 109 -78 -81 0
-78 -109 0
-81 -109 0
78 81 109 0
c gate 110 5 12 0
5 -110 0
12 -110 0
-5 -12 110 0
c gate 111 6 11 0
6 -111 0
11 -111 0
-6 -11 111 0
c gate 112 7 10 0
7 -112 0
10 -112 0
-7 -10 112 0
c gate 113 -111 -112 0
-111 -113 0
-112 -113 0
111 112 113 0
c gate 114 111 112 0
111 -114 0
112 -114 0
-111 -112 114 0
c gate 115 -113 -114 0
-113 -115 0
-114 -115 0
113 114 115 0
c gate 116 -110 -115 0
-110 -116 0
-115 -116 0
110 115 116 0
c gate 117 110 115 0
110 -117 0
115 -117 0
-110 -115 117 0
c gate 118 -116 -117 0
-116 -118 0
-117 -118 0
116 117 118 0
c gate 119 -109 118 0
-109 -119 0
118 -119 0
109 -118 119 0
c gate 120 109 -118 0
109 -120 0
-118 -120 0
-109 118 120 0
c gate 121 -119 -120 0
-119 -121 0
-120 -121 0
119 120 121 0
c gate 122 -108 -121 0
-108 -122 0
-121 -122 0
108 121 122 0
c gate 123 108 121 0
108 -123 0
121 -123 0
-108 -121 123 0
c gate 124 -122 -123 0
-122 -124 0
-123 -124 0
122 123 124 0
c gate 125 -99 124 0
-99 -125 0
124 -125 0
99 -124 125 0
c gate 126 99 -124 0
99 -126 0
-124 -126 0
-99 124 126 0
c gate 127 -125 -126 0
-125 -127 0
-126 -127 0
125 126 127 0
c gate 128 98 127 0
98 -128 0
127 -128 0
-98 -127 128 0
c gate 129 -98 -127 0
-98 -129 0
-127 -129 0
98 127 129 0
c gate 130 -128 -129 0
-128 -130 0
-129 -130 0
128 129 130 0
c gate 131 -93 130 0
-93 -131 0
130 -131 0
93 -130 131 0
c gate 132 93 -130 0
93 -132 0
-130 -132 0
-93 130 132 0
c gate 133 -44 -91 0
-44 -133 0
-91 -133 0
44 91 133 0
c gate 134 -92 -133 0
-92 -134 0
-133 -134 0
92 133 134 0
c gate 135 -132 134 0
-132 -135 0
134 -135 0
132 -134 135 0
c gate 136 -131 135 0
-131 -136 0
135 -136 0
131 -135 136 0
c gate 137 62 136 0
62 -137 0
136 -137 0
-62 -136 137 0
c gate 138 -125 -128 0
-125 -138 0
-128 -138 0
125 128 138 0
c gate 139 -119 -123 0
-119 -139 0
-123 -139 0
119 123 139 0
c gate 140 -114 -117 0
-114 -140 0
-117 -140 0
114 117 140 0
c gate 141 7 11 0
7 -141 0
11 -141 0
-7 -11 141 0
c gate 142 8 10 0
8 -142 0
10 -142 0
-8 -10 142 0
c gate 143 -141 -142 0
-141 -143 0
-142 -143 0
141 142 143 0
c gate 144 141 142 0
141 -144 0
142 -144 0
-141 -142 144 0
c gate 145 -143 -144 0
-143 -145 0
-144 -145 0
143 144 145 0
c gate 146 6 12 0
6 -146 0
12 -146 0
-6 -12 146 0
c gate 147 -145 146 0
-145 -147 0
146 -147 0
145 -146 147 0
c gate 148 145 -146 0
145 -148 0
-146 -148 0
-145 146 148 0
c gate 149 -147 -148 0
-147 -149 0
-148 -149 0
147 148 149 0
c gate 150 140 149 0
140 -150 0
149 -150 0
-140 -149 150 0
c gate 151 -140 -149 0
-140 -151 0
-149 -151 0
140 149 151 0
c gate 152 -150 -151 0
-150 -152 0
-151 -152 0
150 151 152 0
c gate 153 3 15 0
3 -153 0
15 -153 0
-3 -15 153 0
c gate 154 4 14 0
4 -154 0
14 -154 0
-4 -14 154 0
c gate 155 5 13 0
5 -155 0
13 -155 0
-5 -13 155 0
c gate 156 -154 -155 0
-154 -156 0
-155 -156 0
154 155 156 0
c gate 157 154 155 0
154 -157 0
155 -157 0
-154 -155 157 0
c gate 158 -156 -157 0
-156 -158 0
-157 -158 0
156 157 158 0
c gate 159 153 158 0
153 -159 0
158 -159 0
-153 -158 159 0
c gate 160 -153 -158 0
-153 -160 0
-158 -160 0
153 158 160 0
c gate 161 -159 -160 0
-159 -161 0
-160 -161 0
159 160 161 0
c gate 162 -152 161 0
-152 -162 0
161 -162 0
152 -161 162 0
c gate 163 152 -161 0
152 -163 0
-161 -163 0
-152 161 163 0
c gate 164 -162 -163 0
-162 -164 0
-163 -164 0
162 163 164 0
c gate 165 139 164 0
139 -165 0
164 -165 0
-139 -164 165 0
c gate 166 -139 -164 0
-139 -166 0
-164 -166 0
139 164 166 0
c gate 167 -165 -166 0
-165 -167 0
-166 -167 0
165 166 167 0
c gate 168 1 17 0
1 -168 0
17 -168 0
-1 -17 168 0
c gate 169 2 16 0
2 -169 0
16 -169 0
-2 -16 169 0
c gate 170 -168 -169 0
-168 -170 0
-169 -170 0
168 169 170 0
c gate 171 168 169 0
168 -171 0
169 -171 0
-168 -169 171 0
c gate 172 -170 -171 0
-170 -172 0
-171 -172 0
170 171 172 0
c gate 173 -104 -106 0
-104 -173 0
-106 -173 0
104 106 173 0
c gate 174 -172 173 0
-172 -174 0
173 -174 0
172 -173 174 0
c gate 175 172 -173 0
172 -175 0
-173 -175 0
-172 173 175 0
c gate 176 -174 -175 0
-174 -176 0
-175 -176 0
174 175 176 0
c gate 177 -167 176 0
-167 -177 0
176 -177 0
167 -176 177 0
c gate 178 167 -176 0
167 -178 0
-176 -178 0
-167 176 178 0
c gate 179 -177 -178 0
-177 -179 0
-178 -179 0
177 178 179 0
c gate 180 -138 -179 0
-138 -180 0
-179 -180 0
138 179 180 0
c gate 181 138 179 0
138 -181 0
179 -181 0
-138 -179 181 0
c gate 182 -180 -181 0
-180 -182 0
-181 -182 0
180 181 182 0
c gate 183 96 182 0
96 -183 0
182 -183 0
-96 -182 183 0
c gate 184 -96 -182 0
-96 -184 0
-182 -184 0
96 182 184 0
c gate 185 -183 -184 0
-183 -185 0
-184 -185 0
183 184 185 0
c gate 186 131 185 0
131 -186 0
185 -186 0
-131 -185 186 0
c gate 187 -137 -186 0
-137 -187 0
-186 -187 0
137 186 187 0
c gate 188 -131 -185 0
-131 -188 0
-185 -188 0
131 185 188 0
c gate 189 -180 -183 0
-180 -189 0
-183 -189 0
180 183 189 0
c gate 190 1 18 0
1 -190 0
18 -190 0
-1 -18 190 0
c gate 191 2 17 0
2 -191 0
17 -191 0
-2 -17 191 0
c gate 192 3 16 0
3 -192 0
16 -192 0
-3 -16 192 0
c gate 193 -191 -192 0
-191 -193 0
-192 -193 0
191 192 193 0
c gate 194 191 192 0
191 -194 0
192 -194 0
-191 -192 194 0
c gate 195 -193 -194 0
-193 -195 0
-194 -195 0
193 194 195 0
c gate 196 -190 -195 0
-190 -196 0
-195 -196 0
190 195 196 0
c gate 197 190 195 0
190 -197 0
195 -197 0
-190 -195 197 0
c gate 198 -196 -197 0
-196 -198 0
-197 -198 0
196 197 198 0
c gate 199 -157 -159 0
-157 -199 0
-159 -199 0
157 159 199 0
c gate 200 198 -199 0
198 -200 0
-199 -200 0
-198 199 200 0
c gate 201 -198 199 0
-198 -201 0
199 -201 0
198 -199 201 0
c gate 202 -200 -201 0
-200 -202 0
-201 -202 0
200 201 202 0
c gate 203 -171 -202 0
-171 -203 0
-202 -203 0
171 202 203 0
c gate 204 171 202 0
171 -204 0
202 -204 0
-171 -202 204 0
c gate 205 -203 -204 0
-203 -205 0
-204 -205 0
203 204 205 0
c gate 206 4 15 0
4 -206 0
15 -206 0
-4 -15 206 0
c gate 207 5 14 0
5 -207 0
14 -207 0
-5 -14 207 0
c gate 208 6 13 0
6 -208 0
13 -208 0
-6 -13 208 0
c gate 209 -207 -208 0
-207 -209 0
-208 -209 0
207 208 209 0
c gate 210 207 208 0
207 -210 0
208 -210 0
-207 -208 210 0
c gate 211 -209 -210 0
-209 -211 0
-210 -211 0
209 210 211 0
c gate 212 -206 -211 0
-206 -212 0
-211 -212 0
206 211 212 0
c gate 213 206 211 0
206 -213 0
211 -213 0
-206 -211 213 0
c gate 214 -212 -213 0
-212 -214 0
-213 -214 0
212 213 214 0
c gate 215 7 12 0
7 -215 0
12 -215 0
-7 -12 215 0
c gate 216 8 11 0
8 -216 0
11 -216 0
-8 -11 216 0
c gate 217 9 10 0
9 -217 0
10 -217 0
-9 -10 217 0
c gate 218 -216 -217 0
-216 -218 0
-217 -218 0
216 217 218 0
c gate 219 216 217 0
216 -219 0
217 -219 0
-216 -217 219 0
c gate 220 -218 -219 0
-218 -220 0
-219 -220 0
218 219 220 0
c gate 221 -215 -220 0
-215 -221 0
-220 -221 0
215 220 221 0
c gate 222 215 220 0
215 -222 0
220 -222 0
-215 -220 222 0
c gate 223 -221 -222 0
-221 -223 0
-222 -223 0
221 222 223 0
c gate 224 -143 -148 0
-143 -224 0
-148 -224 0
143 148 224 0
c gate 225 223 224 0
223 -225 0
224 -225 0
-223 -224 225 0
c gate 226 -223 -224 0
-223 -226 0
-224 -226 0
223 224 226 0
c gate 227 -225 -226 0
-225 -227 0
-226 -227 0
225 226 227 0
c gate 228 -214 -227 0
-214 -228 0
-227 -228 0
214 227 228 0
c gate 229 214 227 0
214 -229 0
227 -229 0
-214 -227 229 0
c gate 230 -228 -229 0
-228 -230 0
-229 -230 0
228 229 230 0
c gate 231 -150 -163 0
-150 -231 0
-163 -231 0
150 163 231 0
c gate 232 230 231 0
230 -232 0
231 -232 0
-230 -231 232 0
c gate 233 -230 -231 0
-230 -233 0
-231 -233 0
230 231 233 0
c gate 234 -232 -233 0
-232 -234 0
-233 -234 0
232 233 234 0
c gate 235 -205 -234 0
-205 -235 0
-234 -235 0
205 234 235 0
c gate 236 205 234 0
205 -236 0
234 -236 0
-205 -234 236 0
c gate 237 -235 -236 0
-235 -237 0
-236 -237 0
235 236 237 0
c gate 238 -165 -178 0
-165 -238 0
-178 -238 0
165 178 238 0
c gate 239 237 238 0
237 -239 0
238 -239 0
-237 -238 239 0
c gate 240 -237 -238 0
-237 -240 0
-238 -240 0
237 238 240 0
c gate 241 -239 -240 0
-239 -241 0
-240 -241 0
239 240 241 0
c gate 242 -175 -241 0
-175 -242 0
-241 -242 0
175 241 242 0
c gate 243 175 241 0
175 -243 0
241 -243 0
-175 -241 243 0
c gate 244 -242 -243 0
-242 -244 0
-243 -244 0
242 243 244 0
c gate 245 189 -244 0
189 -245 0
-244 -245 0
-189 244 245 0
c gate 246 -189 244 0
-189 -246 0
244 -246 0
189 -244 246 0
c gate 247 -245 -246 0
-245 -247 0
-246 -247 0
245 246 247 0
c gate 248 -188 247 0
-188 -248 0
247 -248 0
188 -247 248 0
c gate 249 -187 248 0
-187 -249 0
248 -249 0
187 -248 249 0
c gate 250 -186 -188 0
-186 -250 0
-188 -250 0
186 188 250 0
c gate 251 -137 -250 0
-137 -251 0
-250 -251 0
137 250 251 0
c gate 252 40 -61 0
40 -252 0
-61 -252 0
-40 61 252 0
c gate 253 -36 -38 0
-36 -253 0
-38 -253 0
36 38 253 0
c gate 254 -3 -12 0
-3 -254 0
-12 -254 0
3 12 254 0
c gate 255 -47 -254 0
-47 -255 0
-254 -255 0
47 254 255 0
c gate 256 1 10 0
1 -256 0
10 -256 0
-1 -10 256 0
c gate 257 29 256 0
29 -257 0
256 -257 0
-29 -256 257 0
c gate 258 -255 257 0
-255 -258 0
257 -258 0
255 -257 258 0
c gate 259 -39 258 0
-39 -259 0
258 -259 0
39 -258 259 0
c gate 260 -253 259 0
-253 -260 0
259 -260 0
253 -259 260 0
c gate 261 -62 260 0
-62 -261 0
260 -261 0
62 -260 261 0
c gate 262 -252 261 0
-252 -262 0
261 -262 0
252 -261 262 0
c gate 263 136 262 0
136 -263 0
262 -263 0
-136 -262 263 0
c gate 264 247 263 0
247 -264 0
263 -264 0
-247 -263 264 0
c gate 265 -251 264 0
-251 -265 0
264 -265 0
251 -264 265 0
c gate 266 -249 265 0
-249 -266 0
265 -266 0
249 -265 266 0
c PO
266 0
